3 40 1 10
4 16 12 14 16 1 8 16 20 10 9 14 8 19 8 1 20 20 6 3 13 2 11 19 20 2 1 9 20 13 8 5 17 8 5 19 15 11 7 16 
1.52 1.65 1.42 7.41 1.39 5.23 7.29 0.8 3.66 0.8 2.52 6.84 6.5 1.89 4.29 1.31 5.38 0.93 2.26 1.72 1.55 5.36 1.14 5.96 2.71 5.09 3.27 5.85 5.13 6.42 3.11 4.67 3.06 2.26 1.59 1.21 3.16 5.57 4.41 5.79 
4 4 4 4 4 4 4 4 4 4 4 4 4 4 4 4 4 4 4 4 4 4 4 4 4 4 4 4 4 4 4 4 4 4 4 4 4 4 4 4 
1.09 3.64 6.05 4.43 7.33 4.96 4.55 5.76 2.47 1.01 7.77 4.5 0.99 6.28 1.53 7.29 6.15 4.64 6.48 1.64 2.99 6.83 0.76 0.29 5.11 4.22 2.75 4.42 6.82 4.73 0.52 6.73 4.28 7.02 1.34 3.21 7.57 2.56 7.78 5.87 
1 1 1 1 1 1 1 1 1 1 1 1 1 1 1 1 1 1 1 1 1 1 1 1 1 1 1 1 1 1 1 1 1 1 1 1 1 1 1 1 
1 1 1 1 1 1 1 1 1 1 1 1 1 1 1 1 1 1 1 1 1 1 1 1 1 1 1 1 1 1 1 1 1 1 1 1 1 1 1 1 
1 1 1 1 1 1 1 1 1 1 1 1 1 1 1 1 1 1 1 1 1 1 1 1 1 1 1 1 1 1 1 1 1 1 1 1 1 1 1 1 
0.01 0.01 0.01 0.01 0.01 0.01 0.01 0.01 0.01 0.01 0.01 0.01 0.01 0.01 0.01 0.01 0.01 0.01 0.01 0.01 0.01 0.01 0.01 0.01 0.01 0.01 0.01 0.01 0.01 0.01 0.01 0.01 0.01 0.01 0.01 0.01 0.01 0.01 0.01 0.01 
0.02 0.02 0.02 0.02 0.02 0.02 0.02 0.02 0.02 0.02 0.02 0.02 0.02 0.02 0.02 0.02 0.02 0.02 0.02 0.02 0.02 0.02 0.02 0.02 0.02 0.02 0.02 0.02 0.02 0.02 0.02 0.02 0.02 0.02 0.02 0.02 0.02 0.02 0.02 0.02 
1 1 1 1 1 1 1 1 1 1 1 1 1 1 1 1 1 1 1 1 1 1 1 1 1 1 1 1 1 1 1 1 1 1 1 1 1 1 1 1 
